nohup: ignoring input
miplib2017_binary-small
symmetric
./result/miplib2017/miplib2017_purebinary_solved.txt
original problem has 16263 variables (16263 bin, 0 int, 0 impl, 0 cont) and 55107 constraints
graph20-80-1rand


miplib2017_binary-34
Number of variables 16263
Number of binary variables 16263
* Model status: sollimit
* Solving time: 3.307292
* number of sol :  1
